
List of user-set options:

                                    Name   Value                used
                           linear_solver = ma57                  yes
                  ma57_automatic_scaling = yes                   yes
                                max_iter = 2000                  yes
                             mu_strategy = adaptive              yes
                             output_file = Car_HighwayIPOPTinfo.txt  yes
                             print_level = 5                     yes
                      print_user_options = yes                   yes
                                     tol = 0.001                 yes
This is Ipopt version 3.11.0, running with linear solver ma57.

Number of nonzeros in equality constraint Jacobian...:    22382
Number of nonzeros in inequality constraint Jacobian.:     1616
Number of nonzeros in Lagrangian Hessian.............:     7678

Total number of variables............................:     3639
                     variables with only lower bounds:        0
                variables with lower and upper bounds:     2831
                     variables with only upper bounds:        0
Total number of equality constraints.................:     2835
Total number of inequality constraints...............:      811
        inequality constraints with only lower bounds:      810
   inequality constraints with lower and upper bounds:        1
        inequality constraints with only upper bounds:        0

iter    objective    inf_pr   inf_du lg(mu)  ||d||  lg(rg) alpha_du alpha_pr  ls
   0  1.6196314e-16 2.27e-01 1.19e+00   0.0 0.00e+00    -  0.00e+00 0.00e+00   0
   1  1.1652298e-09 2.70e-03 3.80e+00   0.2 3.85e-02   2.0 9.90e-01 1.00e+00h  1
   2  4.8028346e-11 3.89e-09 1.66e-01  -5.5 1.34e-02    -  9.90e-01 1.00e+00h  1
   3  8.9605372e-14 2.00e-13 1.66e-03  -7.5 6.63e-04    -  9.90e-01 1.00e+00h  1
   4  5.3882572e-19 3.08e-13 1.07e-05  -9.5 3.85e-05    -  9.94e-01 1.00e+00h  1

Number of Iterations....: 4

                                   (scaled)                 (unscaled)
Objective...............:   5.3882571678112575e-19    5.3882571678112575e-19
Dual infeasibility......:   1.0714131931964269e-05    1.0714131931964269e-05
Constraint violation....:   3.0764280012363088e-13    3.0764280012363088e-13
Complementarity.........:   4.1874921789062302e-05    4.1874921789062302e-05
Overall NLP error.......:   4.1874921789062302e-05    4.1874921789062302e-05


Number of objective function evaluations             = 5
Number of objective gradient evaluations             = 5
Number of equality constraint evaluations            = 5
Number of inequality constraint evaluations          = 5
Number of equality constraint Jacobian evaluations   = 5
Number of inequality constraint Jacobian evaluations = 5
Number of Lagrangian Hessian evaluations             = 4
Total CPU secs in IPOPT (w/o function evaluations)   =      0.096
Total CPU secs in NLP function evaluations           =      0.114

EXIT: Optimal Solution Found.
